computational_data/real_data/logs/wdbc_trial_009_lex.log
Welcome to the CBC MILP Solver 
Version: 2.10.12 
Build Date: Aug 20 2024 

command line - /opt/homebrew/bin/cbc computational_data/real_data/lp/wdbc_trial_009_lex.lp seconds 10.0 solve solu computational_data/real_data/solutions/wdbc_trial_009_lex.sol (default strategy 1)
 CoinLpIO::readLp(): Maximization problem reformulated as minimization
Coin0009I Switching back to maximization to get correct duals etc
seconds was changed from 1e+100 to 10
Continuous objective value is 6.65929 - 0.00 seconds
Cgl0003I 0 fixed, 0 tightened bounds, 66 strengthened rows, 0 substitutions
Cgl0003I 0 fixed, 0 tightened bounds, 68 strengthened rows, 0 substitutions
Cgl0003I 0 fixed, 0 tightened bounds, 68 strengthened rows, 0 substitutions
Cgl0003I 0 fixed, 0 tightened bounds, 50 strengthened rows, 0 substitutions
Cgl0003I 0 fixed, 0 tightened bounds, 27 strengthened rows, 0 substitutions
Cgl0003I 0 fixed, 0 tightened bounds, 16 strengthened rows, 0 substitutions
Cgl0003I 0 fixed, 0 tightened bounds, 9 strengthened rows, 0 substitutions
Cgl0003I 0 fixed, 0 tightened bounds, 6 strengthened rows, 0 substitutions
Cgl0003I 0 fixed, 0 tightened bounds, 6 strengthened rows, 0 substitutions
Cgl0004I processed model has 69 rows, 29 columns (29 integer (28 of which binary)) and 458 elements
Cbc0038I Initial state - 13 integers unsatisfied sum - 5
Cbc0038I Pass   1: suminf.    0.00000 (0) obj. 6.60177 iterations 17
Cbc0038I Solution found of 6.60177
Cbc0038I Cleaned solution of 6.60177
Cbc0038I Before mini branch and bound, 14 integers at bound fixed and 0 continuous
Cbc0038I Full problem 69 rows 29 columns, reduced to 36 rows 14 columns
Cbc0038I Mini branch and bound improved solution from 6.60177 to 6.61947 (0.01 seconds)
Cbc0038I Round again with cutoff of 6.62346
Cbc0038I Pass   2: suminf.    0.90205 (11) obj. 6.62346 iterations 13
Cbc0038I Pass   3: suminf.    0.51545 (7) obj. 6.62346 iterations 4
Cbc0038I Pass   4: suminf.    3.00000 (6) obj. 6.64159 iterations 5
Cbc0038I Pass   5: suminf.    0.54123 (6) obj. 6.62346 iterations 8
Cbc0038I Pass   6: suminf.    3.00000 (9) obj. 6.62832 iterations 19
Cbc0038I Pass   7: suminf.    0.67653 (11) obj. 6.62346 iterations 12
Cbc0038I Pass   8: suminf.    0.51545 (7) obj. 6.62346 iterations 2
Cbc0038I Pass   9: suminf.    0.51545 (7) obj. 6.62346 iterations 1
Cbc0038I Pass  10: suminf.    0.51545 (7) obj. 6.62346 iterations 0
Cbc0038I Pass  11: suminf.    3.00000 (6) obj. 6.64159 iterations 10
Cbc0038I Pass  12: suminf.    0.54123 (6) obj. 6.62346 iterations 9
Cbc0038I Pass  13: suminf.    0.51545 (7) obj. 6.62346 iterations 6
Cbc0038I Pass  14: suminf.    1.10251 (13) obj. 6.62346 iterations 10
Cbc0038I Pass  15: suminf.    0.51545 (7) obj. 6.62346 iterations 4
Cbc0038I Pass  16: suminf.    0.51545 (7) obj. 6.62346 iterations 7
Cbc0038I Pass  17: suminf.    0.51545 (7) obj. 6.62346 iterations 6
Cbc0038I Pass  18: suminf.    3.00000 (6) obj. 6.64159 iterations 6
Cbc0038I Pass  19: suminf.    0.54123 (6) obj. 6.62346 iterations 6
Cbc0038I Pass  20: suminf.    0.51545 (7) obj. 6.62346 iterations 5
Cbc0038I Pass  21: suminf.    0.51545 (7) obj. 6.62346 iterations 7
Cbc0038I Pass  22: suminf.    0.51545 (7) obj. 6.62346 iterations 2
Cbc0038I Pass  23: suminf.    0.78929 (12) obj. 6.62346 iterations 4
Cbc0038I Pass  24: suminf.    0.51545 (7) obj. 6.62346 iterations 5
Cbc0038I Pass  25: suminf.    3.00000 (6) obj. 6.64159 iterations 7
Cbc0038I Pass  26: suminf.    0.54123 (6) obj. 6.62346 iterations 8
Cbc0038I Pass  27: suminf.    0.51545 (7) obj. 6.62346 iterations 5
Cbc0038I Pass  28: suminf.    0.90205 (11) obj. 6.62346 iterations 10
Cbc0038I Pass  29: suminf.    0.51545 (7) obj. 6.62346 iterations 6
Cbc0038I Pass  30: suminf.    3.00000 (6) obj. 6.64159 iterations 7
Cbc0038I Pass  31: suminf.    0.54123 (6) obj. 6.62346 iterations 8
Cbc0038I No solution found this major pass
Cbc0038I Before mini branch and bound, 5 integers at bound fixed and 0 continuous
Cbc0038I Full problem 69 rows 29 columns, reduced to 57 rows 24 columns
Cbc0038I Mini branch and bound improved solution from 6.61947 to 6.64602 (0.01 seconds)
Cbc0038I Round again with cutoff of 6.64868
Cbc0038I Reduced cost fixing fixed 8 variables on major pass 3
Cbc0038I Pass  31: suminf.    1.00309 (9) obj. 6.64868 iterations 5
Cbc0038I Pass  32: suminf.    0.80247 (7) obj. 6.64868 iterations 4
Cbc0038I Pass  33: suminf.    3.00000 (9) obj. 6.65487 iterations 12
Cbc0038I Pass  34: suminf.    0.80247 (7) obj. 6.64868 iterations 8
Cbc0038I Pass  35: suminf.    2.33333 (7) obj. 6.65487 iterations 10
Cbc0038I Pass  36: suminf.    0.80247 (7) obj. 6.64868 iterations 11
Cbc0038I Pass  37: suminf.    2.40710 (12) obj. 6.64868 iterations 10
Cbc0038I Pass  38: suminf.    0.80247 (7) obj. 6.64868 iterations 4
Cbc0038I Pass  39: suminf.    3.00000 (9) obj. 6.65487 iterations 5
Cbc0038I Pass  40: suminf.    2.33333 (7) obj. 6.64897 iterations 9
Cbc0038I Pass  41: suminf.    0.80247 (7) obj. 6.64868 iterations 11
Cbc0038I Pass  42: suminf.    0.80247 (7) obj. 6.64868 iterations 0
Cbc0038I Pass  43: suminf.    3.00000 (9) obj. 6.65487 iterations 6
Cbc0038I Pass  44: suminf.    0.80247 (7) obj. 6.64868 iterations 5
Cbc0038I Pass  45: suminf.    0.80247 (7) obj. 6.64868 iterations 3
Cbc0038I Pass  46: suminf.    3.00000 (9) obj. 6.65487 iterations 12
Cbc0038I Pass  47: suminf.    0.80247 (7) obj. 6.64868 iterations 12
Cbc0038I Pass  48: suminf.    0.80247 (7) obj. 6.64868 iterations 0
Cbc0038I Pass  49: suminf.    3.00000 (9) obj. 6.65487 iterations 8
Cbc0038I Pass  50: suminf.    0.80247 (7) obj. 6.64868 iterations 5
Cbc0038I Pass  51: suminf.    0.80247 (7) obj. 6.64868 iterations 1
Cbc0038I Pass  52: suminf.    3.00000 (9) obj. 6.65487 iterations 10
Cbc0038I Pass  53: suminf.    0.80247 (7) obj. 6.64868 iterations 6
Cbc0038I Pass  54: suminf.    2.33333 (10) obj. 6.64868 iterations 8
Cbc0038I Pass  55: suminf.    0.80247 (7) obj. 6.64868 iterations 4
Cbc0038I Pass  56: suminf.    1.00309 (9) obj. 6.64868 iterations 11
Cbc0038I Pass  57: suminf.    0.80247 (7) obj. 6.64868 iterations 1
Cbc0038I Pass  58: suminf.    3.00000 (9) obj. 6.65487 iterations 7
Cbc0038I Pass  59: suminf.    0.80247 (7) obj. 6.64868 iterations 5
Cbc0038I Pass  60: suminf.    0.80247 (7) obj. 6.64868 iterations 7
Cbc0038I No solution found this major pass
Cbc0038I Before mini branch and bound, 10 integers at bound fixed and 0 continuous
Cbc0038I Full problem 69 rows 29 columns, reduced to 51 rows 19 columns
Cbc0038I Mini branch and bound did not improve solution (0.02 seconds)
Cbc0038I After 0.02 seconds - Feasibility pump exiting with objective of 6.64602 - took 0.01 seconds
Cbc0012I Integer solution of 6.646018 found by feasibility pump after 0 iterations and 0 nodes (0.02 seconds)
Cbc0038I Full problem 69 rows 29 columns, reduced to 30 rows 13 columns
Cbc0031I 3 added rows had average density of 5.3333333
Cbc0013I At root node, 6 cuts changed objective from 6.659293 to 6.646018 in 1 passes
Cbc0014I Cut generator 0 (Probing) - 0 row cuts average 0.0 elements, 0 column cuts (0 active)  in 0.000 seconds - new frequency is -100
Cbc0014I Cut generator 1 (Gomory) - 3 row cuts average 5.3 elements, 0 column cuts (0 active)  in 0.000 seconds - new frequency is 1
Cbc0014I Cut generator 2 (Knapsack) - 0 row cuts average 0.0 elements, 0 column cuts (0 active)  in 0.000 seconds - new frequency is -100
Cbc0014I Cut generator 3 (Clique) - 0 row cuts average 0.0 elements, 0 column cuts (0 active)  in 0.000 seconds - new frequency is -100
Cbc0014I Cut generator 4 (MixedIntegerRounding2) - 0 row cuts average 0.0 elements, 0 column cuts (0 active)  in 0.000 seconds - new frequency is -100
Cbc0014I Cut generator 5 (FlowCover) - 0 row cuts average 0.0 elements, 0 column cuts (0 active)  in 0.000 seconds - new frequency is -100
Cbc0014I Cut generator 6 (TwoMirCuts) - 3 row cuts average 5.3 elements, 0 column cuts (0 active)  in 0.000 seconds - new frequency is -100
Cbc0001I Search completed - best objective 6.646018, took 0 iterations and 0 nodes (0.02 seconds)
Cbc0035I Maximum depth 0, 8 variables fixed on reduced cost
Cuts at root node changed objective from 6.65929 to 6.64602
Probing was tried 1 times and created 0 cuts of which 0 were active after adding rounds of cuts (0.000 seconds)
Gomory was tried 1 times and created 3 cuts of which 0 were active after adding rounds of cuts (0.000 seconds)
Knapsack was tried 1 times and created 0 cuts of which 0 were active after adding rounds of cuts (0.000 seconds)
Clique was tried 1 times and created 0 cuts of which 0 were active after adding rounds of cuts (0.000 seconds)
MixedIntegerRounding2 was tried 1 times and created 0 cuts of which 0 were active after adding rounds of cuts (0.000 seconds)
FlowCover was tried 1 times and created 0 cuts of which 0 were active after adding rounds of cuts (0.000 seconds)
TwoMirCuts was tried 1 times and created 3 cuts of which 0 were active after adding rounds of cuts (0.000 seconds)
ZeroHalf was tried 1 times and created 0 cuts of which 0 were active after adding rounds of cuts (0.000 seconds)

Result - Optimal solution found

Objective value:                6.64601800
Enumerated nodes:               0
Total iterations:               0
Time (CPU seconds):             0.02
Time (Wallclock seconds):       0.02

Total time (CPU seconds):       0.02   (Wallclock seconds):       0.02

